certificates/rado_a11_c214_N33.cnf
c Rad2 upper bound instance: x1 + 11*x2 - x3 = 214, interval [1,33]
p cnf 33 196
1 7 20 0
-1 -7 -20 0
1 18 21 0
-1 -18 -21 0
1 22 29 0
-1 -22 -29 0
2 8 20 0
-2 -8 -20 0
2 19 21 0
-2 -19 -21 0
2 22 30 0
-2 -22 -30 0
3 9 20 0
-3 -9 -20 0
3 20 21 0
-3 -20 -21 0
3 22 31 0
-3 -22 -31 0
4 10 20 0
-4 -10 -20 0
4 21 0
-4 -21 0
4 22 32 0
-4 -22 -32 0
5 11 20 0
-5 -11 -20 0
5 21 22 0
-5 -21 -22 0
5 22 33 0
-5 -22 -33 0
1 6 19 0
-1 -6 -19 0
6 12 20 0
-6 -12 -20 0
6 21 23 0
-6 -21 -23 0
2 7 19 0
-2 -7 -19 0
7 13 20 0
-7 -13 -20 0
7 21 24 0
-7 -21 -24 0
3 8 19 0
-3 -8 -19 0
8 14 20 0
-8 -14 -20 0
8 21 25 0
-8 -21 -25 0
4 9 19 0
-4 -9 -19 0
9 15 20 0
-9 -15 -20 0
9 21 26 0
-9 -21 -26 0
5 10 19 0
-5 -10 -19 0
10 16 20 0
-10 -16 -20 0
10 21 27 0
-10 -21 -27 0
6 11 19 0
-6 -11 -19 0
11 17 20 0
-11 -17 -20 0
11 21 28 0
-11 -21 -28 0
7 12 19 0
-7 -12 -19 0
12 18 20 0
-12 -18 -20 0
12 21 29 0
-12 -21 -29 0
8 13 19 0
-8 -13 -19 0
13 19 20 0
-13 -19 -20 0
13 21 30 0
-13 -21 -30 0
9 14 19 0
-9 -14 -19 0
14 20 0
-14 -20 0
14 21 31 0
-14 -21 -31 0
10 15 19 0
-10 -15 -19 0
15 20 21 0
-15 -20 -21 0
15 21 32 0
-15 -21 -32 0
11 16 19 0
-11 -16 -19 0
16 20 22 0
-16 -20 -22 0
16 21 33 0
-16 -21 -33 0
1 17 18 0
-1 -17 -18 0
12 17 19 0
-12 -17 -19 0
17 20 23 0
-17 -20 -23 0
2 18 0
-2 -18 0
13 18 19 0
-13 -18 -19 0
18 20 24 0
-18 -20 -24 0
3 18 19 0
-3 -18 -19 0
14 19 0
-14 -19 0
19 20 25 0
-19 -20 -25 0
4 18 20 0
-4 -18 -20 0
15 19 20 0
-15 -19 -20 0
20 26 0
-20 -26 0
5 18 21 0
-5 -18 -21 0
16 19 21 0
-16 -19 -21 0
20 21 27 0
-20 -21 -27 0
6 18 22 0
-6 -18 -22 0
17 19 22 0
-17 -19 -22 0
20 22 28 0
-20 -22 -28 0
7 18 23 0
-7 -18 -23 0
18 19 23 0
-18 -19 -23 0
20 23 29 0
-20 -23 -29 0
8 18 24 0
-8 -18 -24 0
19 24 0
-19 -24 0
20 24 30 0
-20 -24 -30 0
9 18 25 0
-9 -18 -25 0
20 25 31 0
-20 -25 -31 0
10 18 26 0
-10 -18 -26 0
19 21 26 0
-19 -21 -26 0
20 26 32 0
-20 -26 -32 0
11 18 27 0
-11 -18 -27 0
19 22 27 0
-19 -22 -27 0
20 27 33 0
-20 -27 -33 0
1 17 28 0
-1 -17 -28 0
12 18 28 0
-12 -18 -28 0
19 23 28 0
-19 -23 -28 0
2 17 29 0
-2 -17 -29 0
13 18 29 0
-13 -18 -29 0
19 24 29 0
-19 -24 -29 0
3 17 30 0
-3 -17 -30 0
14 18 30 0
-14 -18 -30 0
19 25 30 0
-19 -25 -30 0
4 17 31 0
-4 -17 -31 0
15 18 31 0
-15 -18 -31 0
19 26 31 0
-19 -26 -31 0
5 17 32 0
-5 -17 -32 0
16 18 32 0
-16 -18 -32 0
19 27 32 0
-19 -27 -32 0
6 17 33 0
-6 -17 -33 0
17 18 33 0
-17 -18 -33 0
19 28 33 0
-19 -28 -33 0
