certificates/rado_a11_c214_N33.drat
19 -30 -31 -32 0
18 23 -19 0
-18 -19 -33 0
-19 -33 0
d -18 -19 -33 0
-32 19 0
d -30 -31 19 -32 0
18 -33 0
-33 0
-18 20 0
20 0
-14 0
-26 0
19 0
-24 0
-25 0
-13 0
-15 0
-22 -18 0
d -6 -22 -18 0
32 0
-27 0
-18 0
2 0
17 0
31 0
30 0
29 0
8 0
10 0
11 0
9 0
23 0
-21 0
-7 0
0
